200
75 75
1 52 352
2 52 46
3 52 272
4 52 596
5 52 439
6 51 262
7 51 579
8 50 966
9 50 149
10 50 166
11 50 42
12 50 291
13 50 224
14 49 727
15 49 490
16 49 778
17 49 325
18 49 396
19 49 582
20 49 654
21 49 887
22 49 307
23 48 737
24 48 327
25 48 540
26 48 938
27 48 665
28 48 408
29 48 9
30 48 169
31 47 25
32 47 125
33 47 116
34 47 118
35 46 189
36 46 269
37 45 604
38 45 928
39 44 681
40 44 563
41 43 817
42 43 265
43 43 670
44 42 627
45 42 872
46 42 249
47 42 529
48 42 597
49 41 611
50 41 924
51 41 499
52 41 158
53 41 338
54 40 982
55 40 844
56 40 155
57 40 737
58 40 565
59 40 203
60 40 35
61 40 824
62 40 825
63 39 406
64 39 966
65 39 980
66 39 981
67 39 47
68 39 484
69 39 888
70 39 392
71 39 686
72 38 716
73 38 492
74 38 636
75 38 448
76 37 199
77 37 461
78 37 48
79 37 918
80 37 862
81 37 587
82 36 265
83 36 673
84 36 455
85 36 888
86 36 542
87 36 522
88 36 339
89 35 67
90 35 860
91 35 620
92 35 912
93 34 892
94 34 917
95 34 201
96 34 598
97 33 666
98 33 728
99 33 266
100 33 220
101 33 70
102 33 193
103 33 973
104 32 825
105 32 654
106 32 625
107 32 309
108 32 546
109 32 882
110 31 997
111 31 496
112 31 300
113 31 555
114 31 405
115 31 699
116 30 484
117 30 540
118 30 392
119 29 784
120 29 211
121 29 64
122 29 530
123 29 186
124 29 62
125 29 842
126 29 219
127 28 223
128 28 164
129 28 24
130 28 783
131 28 199
132 28 685
133 28 729
134 28 308
135 28 625
136 27 922
137 27 229
138 27 139
139 27 494
140 27 112
141 26 280
142 26 864
143 26 519
144 26 910
145 26 298
146 26 221
147 26 163
148 26 679
149 26 157
150 26 297
151 25 193
152 25 533
153 24 908
154 24 504
155 24 586
156 23 415
157 22 313
158 22 383
159 22 439
160 22 321
161 22 401
162 22 359
163 22 936
164 22 298
165 22 548
166 22 841
167 22 953
168 22 66
169 22 182
170 21 166
171 21 86
172 21 27
173 21 75
174 21 192
175 20 892
176 20 567
177 20 413
178 19 78
179 19 398
180 19 207
181 18 243
182 18 464
183 18 824
184 18 656
185 18 202
186 17 84
187 17 876
188 17 470
189 17 663
190 16 108
191 16 279
192 16 389
193 16 724
194 16 640
195 15 177
196 15 163
197 15 354
198 15 794
199 15 578
200 15 241
